     Program PWSCF v.5.1.2 starts on 29Oct2019 at 22:15:38

     Waiting for input...
     Reading input from standard input
     Message from routine read_cards :
     DEPRECATED: no units specified in ATOMIC_POSITIONS card
     Message from routine read_cards :
     ATOMIC_POSITIONS: units set to alat

     Current dimensions of program PWSCF are:
     Max number of different atomic species (ntypx) = 10
     Max number of k-points (npk) =  40000
     Max angular momentum in pseudopotentials (lmaxx) =  3
               file Ge.pbe-dn-rrkjus_psl.0.2.2.UPF: wavefunction(s)  3D renormalized

     bravais-lattice index     =            2
     lattice parameter (alat)  =      10.8171  a.u.
     unit-cell volume          =     316.4269 (a.u.)^3
     number of atoms/cell      =            2
     number of atomic types    =            1
     number of electrons       =        28.00
     number of Kohn-Sham states=           66
     kinetic-energy cutoff     =      65.0000  Ry
     charge density cutoff     =     260.0000  Ry
     convergence threshold     =      1.0E-08
     mixing beta               =       0.7000
     number of iterations used =            8  plain     mixing
     Exchange-correlation      = PBE ( 1  4  3  4 0 0)

     celldm(1)=  10.817107  celldm(2)=   0.000000  celldm(3)=   0.000000
     celldm(4)=   0.000000  celldm(5)=   0.000000  celldm(6)=   0.000000

     crystal axes: (cart. coord. in units of alat)
               a(1) = (  -0.500000   0.000000   0.500000 )
               a(2) = (   0.000000   0.500000   0.500000 )
               a(3) = (  -0.500000   0.500000   0.000000 )

     reciprocal axes: (cart. coord. in units 2 pi/alat)
               b(1) = ( -1.000000 -1.000000  1.000000 )
               b(2) = (  1.000000  1.000000  1.000000 )
               b(3) = ( -1.000000  1.000000 -1.000000 )

     PseudoPot. # 1 for Ge read from file:
     ./Ge.pbe-dn-rrkjus_psl.0.2.2.UPF
     MD5 check sum: 9557dd4be68bf872fc867d431758ce48
     Pseudo is Ultrasoft + core correction, Zval = 14.0
     Generated using "atomic" code by A. Dal Corso  v.5.0.2 svn rev. 9415
     Using radial grid of 1207 points,  6 beta functions with:
                l(1) =   0
                l(2) =   0
                l(3) =   1
                l(4) =   1
                l(5) =   2
                l(6) =   2
     Q(r) pseudized with 0 coefficients

     atomic species   valence    mass     pseudopotential
        Ge            14.00    72.63000     Ge( 1.00)

     No symmetry found

   Cartesian axes

     site n.     atom                  positions (alat units)
         1           Ge  tau(   1) = (   0.0000000   0.0000000   0.0000000  )
         2           Ge  tau(   2) = (   0.2500000   0.2500000   0.2500000  )

     number of k points=    77
                       cart. coord. in units 2pi/alat
        k(    1) = (   0.0000000   0.0000000   0.0000000), wk =   0.0259740
        k(    2) = (   0.0000000   1.0000000   0.0000000), wk =   0.0259740
        k(    3) = (  -1.0000000   0.0000000   0.0000000), wk =   0.0259740
        k(    4) = (   0.0000000   0.0000000   1.0000000), wk =   0.0259740
        k(    5) = (   0.0000000  -1.0000000   0.0000000), wk =   0.0259740
        k(    6) = (   1.0000000   0.0000000   0.0000000), wk =   0.0259740
        k(    7) = (   0.0000000   0.0000000  -1.0000000), wk =   0.0259740
        k(    8) = (   1.0000000   0.0000000   1.0000000), wk =   0.0259740
        k(    9) = (  -1.0000000   0.0000000  -1.0000000), wk =   0.0259740
        k(   10) = (   0.0000000  -1.0000000   1.0000000), wk =   0.0259740
        k(   11) = (   0.0000000   1.0000000  -1.0000000), wk =   0.0259740
        k(   12) = (  -1.0000000  -1.0000000   0.0000000), wk =   0.0259740
        k(   13) = (   1.0000000   1.0000000   0.0000000), wk =   0.0259740
        k(   14) = (   0.7500000  -0.7500000  -0.7500000), wk =   0.0259740
        k(   15) = (   0.2500000  -0.2500000  -1.2500000), wk =   0.0259740
        k(   16) = (  -0.2500000   0.2500000  -1.7500000), wk =   0.0259740
        k(   17) = (  -0.7500000   0.7500000  -2.2500000), wk =   0.0259740
        k(   18) = (   1.2500000  -0.2500000  -0.2500000), wk =   0.0259740
        k(   19) = (   0.7500000   0.2500000  -0.7500000), wk =   0.0259740
        k(   20) = (   0.2500000   0.7500000  -1.2500000), wk =   0.0259740
        k(   21) = (  -0.2500000   1.2500000  -1.7500000), wk =   0.0259740
        k(   22) = (   1.7500000   0.2500000   0.2500000), wk =   0.0259740
        k(   23) = (   1.2500000   0.7500000  -0.2500000), wk =   0.0259740
        k(   24) = (   0.7500000   1.2500000  -0.7500000), wk =   0.0259740
        k(   25) = (   0.2500000   1.7500000  -1.2500000), wk =   0.0259740
        k(   26) = (   2.2500000   0.7500000   0.7500000), wk =   0.0259740
        k(   27) = (   1.7500000   1.2500000   0.2500000), wk =   0.0259740
        k(   28) = (   1.2500000   1.7500000  -0.2500000), wk =   0.0259740
        k(   29) = (   0.7500000   2.2500000  -0.7500000), wk =   0.0259740
        k(   30) = (   0.2500000  -1.2500000  -0.2500000), wk =   0.0259740
        k(   31) = (  -0.2500000  -0.7500000  -0.7500000), wk =   0.0259740
        k(   32) = (  -0.7500000  -0.2500000  -1.2500000), wk =   0.0259740
        k(   33) = (  -1.2500000   0.2500000  -1.7500000), wk =   0.0259740
        k(   34) = (   0.7500000  -0.7500000   0.2500000), wk =   0.0259740
        k(   35) = (   0.2500000  -0.2500000  -0.2500000), wk =   0.0259740
        k(   36) = (  -0.2500000   0.2500000  -0.7500000), wk =   0.0259740
        k(   37) = (  -0.7500000   0.7500000  -1.2500000), wk =   0.0259740
        k(   38) = (   1.2500000  -0.2500000   0.7500000), wk =   0.0259740
        k(   39) = (   0.7500000   0.2500000   0.2500000), wk =   0.0259740
        k(   40) = (   0.2500000   0.7500000  -0.2500000), wk =   0.0259740
        k(   41) = (  -0.2500000   1.2500000  -0.7500000), wk =   0.0259740
        k(   42) = (   1.7500000   0.2500000   1.2500000), wk =   0.0259740
        k(   43) = (   1.2500000   0.7500000   0.7500000), wk =   0.0259740
        k(   44) = (   0.7500000   1.2500000   0.2500000), wk =   0.0259740
        k(   45) = (   0.2500000   1.7500000  -0.2500000), wk =   0.0259740
        k(   46) = (  -0.2500000  -1.7500000   0.2500000), wk =   0.0259740
        k(   47) = (  -0.7500000  -1.2500000  -0.2500000), wk =   0.0259740
        k(   48) = (  -1.2500000  -0.7500000  -0.7500000), wk =   0.0259740
        k(   49) = (  -1.7500000  -0.2500000  -1.2500000), wk =   0.0259740
        k(   50) = (   0.2500000  -1.2500000   0.7500000), wk =   0.0259740
        k(   51) = (  -0.2500000  -0.7500000   0.2500000), wk =   0.0259740
        k(   52) = (  -0.7500000  -0.2500000  -0.2500000), wk =   0.0259740
        k(   53) = (  -1.2500000   0.2500000  -0.7500000), wk =   0.0259740
        k(   54) = (   0.7500000  -0.7500000   1.2500000), wk =   0.0259740
        k(   55) = (   0.2500000  -0.2500000   0.7500000), wk =   0.0259740
        k(   56) = (  -0.2500000   0.2500000   0.2500000), wk =   0.0259740
        k(   57) = (  -0.7500000   0.7500000  -0.2500000), wk =   0.0259740
        k(   58) = (   1.2500000  -0.2500000   1.7500000), wk =   0.0259740
        k(   59) = (   0.7500000   0.2500000   1.2500000), wk =   0.0259740
        k(   60) = (   0.2500000   0.7500000   0.7500000), wk =   0.0259740
[...]
        k(   63) = (  -1.2500000  -1.7500000   0.2500000), wk =   0.0259740
        k(   64) = (  -1.7500000  -1.2500000  -0.2500000), wk =   0.0259740
        k(   65) = (  -2.2500000  -0.7500000  -0.7500000), wk =   0.0259740
        k(   66) = (  -0.2500000  -1.7500000   1.2500000), wk =   0.0259740
        k(   67) = (  -0.7500000  -1.2500000   0.7500000), wk =   0.0259740
        k(   68) = (  -1.2500000  -0.7500000   0.2500000), wk =   0.0259740
        k(   69) = (  -1.7500000  -0.2500000  -0.2500000), wk =   0.0259740
        k(   70) = (   0.2500000  -1.2500000   1.7500000), wk =   0.0259740
        k(   71) = (  -0.2500000  -0.7500000   1.2500000), wk =   0.0259740
        k(   72) = (  -0.7500000  -0.2500000   0.7500000), wk =   0.0259740
        k(   73) = (  -1.2500000   0.2500000   0.2500000), wk =   0.0259740
        k(   74) = (   0.7500000  -0.7500000   2.2500000), wk =   0.0259740
        k(   75) = (   0.2500000  -0.2500000   1.7500000), wk =   0.0259740
        k(   76) = (  -0.2500000   0.2500000   1.2500000), wk =   0.0259740
        k(   77) = (  -0.7500000   0.7500000   0.7500000), wk =   0.0259740

     Largest allocated arrays     est. size (Mb)     dimensions
     Largest temporary arrays     est. size (Mb)     dimensions

     Check: negative/imaginary core charge=   -0.000013    0.000000

     Initial potential from superposition of free atoms

     starting charge   27.99847, renormalised to   28.00000
     Starting wfc are   18 randomized atomic wfcs +   48 random wfc

     Self-consistent Calculation

     iteration #  1     ecut=    65.00 Ry     beta=0.70
     Davidson diagonalization with overlap
     ethr =  1.00E-02,  avg # of iterations =  5.0

     Threshold (ethr) on eigenvalues was too large:
     Diagonalizing with lowered threshold

     Davidson diagonalization with overlap
     ethr =  1.55E-04,  avg # of iterations =  2.4

     total energy              =    -422.81239026 Ry
     Harris-Foulkes estimate   =    -422.82053128 Ry
     estimated scf accuracy    <       0.04341523 Ry

[...]

     total energy              =    -422.81424394 Ry
     Harris-Foulkes estimate   =    -422.81424391 Ry
     estimated scf accuracy    <       0.00000001 Ry

     iteration #  7     ecut=    65.00 Ry     beta=0.70
     Davidson diagonalization with overlap
     ethr =  4.41E-11,  avg # of iterations =  4.0

     End of self-consistent calculation

          k = 0.0000 0.0000 0.0000 (  2741 PWs)   bands (ev):

   -16.6870 -16.6297 -16.6297 -16.6179 -16.6179 -16.4637 -16.4079 -16.4079
   -16.3966 -16.3966  -4.4081   7.8343   8.0931   8.0931   8.1243  10.5823
    10.6438  10.6438  14.5433  17.4268  17.4268  18.8282  18.8282  18.9113
    21.9143  32.5514  32.5514  32.5650  33.8504  33.8504  33.8962  34.2984
    34.3273  34.3273  34.9008  34.9008  41.8457  46.9745  47.0251  47.0251
    47.2207  47.2263  47.2263  47.7787  47.9709  47.9709  48.0323  48.5540
    48.5540  48.5633  48.6931  48.6931  48.8339  48.8339  48.9550  49.0610
    49.0610  49.8330  49.8956  49.8956  53.4593  55.6018  55.6018  55.6222
    55.6364  55.6364

[...]

          k =-1.0000 0.0000 0.0000 (  2778 PWs)   bands (ev):

[...]

          k = 0.2500-0.2500 1.7500 (  2794 PWs)   bands (ev):

[...]

          k =-0.7500 0.7500 0.7500 (  2794 PWs)   bands (ev):

   -16.6797 -16.6555 -16.6555 -16.5820 -16.5820 -16.4719 -16.4314 -16.4314
   -16.3788 -16.3788  -3.6971   3.4670   7.2520   7.2520   8.5726  11.6796
    11.6796  13.6012  16.2066  16.3481  16.3481  18.8649  22.9623  22.9623
    25.8341  26.0602  26.0602  26.4404  33.7534  33.7535  34.9262  34.9712
    34.9712  36.7201  38.2467  38.3608  38.3608  42.2434  42.2434  42.7807
    42.7807  42.9051  43.5049  43.9085  44.0001  44.0001  47.4670  47.4670
    47.6011  48.0552  49.3863  49.3863  49.5672  53.6963  53.6963  54.7623
    54.7623  54.8161  56.1963  56.1963  56.8160  57.7728  60.5486  60.5486
    60.7104  61.7304

     highest occupied, lowest unoccupied level (ev):     8.0931    8.1243

!    total energy              =    -422.81424394 Ry
     Harris-Foulkes estimate   =    -422.81424394 Ry
     estimated scf accuracy    <          1.5E-10 Ry

     The total energy is the sum of the following terms:

     one-electron contribution =    -278.27470310 Ry
     hartree contribution      =     164.37431858 Ry
     xc contribution           =    -113.70225128 Ry
     ewald contribution        =    -195.21160814 Ry

     convergence has been achieved in   7 iterations

     Writing output data file germ.save

 &&&&&&&&&&&&&&&&&&&&&&&&&&&&&&&&&&&&&&&&&&&&&&&&&&&&&&&&&&&&&&&&&&
 --- Entering QEdark v1.1.0
 &&&&&&&&&&&&&&&&&&&&&&&&&&&&&&&&&&&&&&&&&&&&&&&&&&&&&&&&&&&&&&&&&&

  Spin-polarized calculation == FALSE

 Reading DM data from dm.in
  calculation_mode set to multimass
  Calculating momentum-integrated, energy-dependent
  DM-electron scattering rates for multiple DM masses.
   npwx      ==        2798
   nbnd      ==          66
   nksf      ==          77
   numval    ==          14
   numvaltot ==          14
   numcond   ==          52
   numcondtot==          52
   cell vol  ==    316.42688329639032      bohr^(3)
   1BZ vol   ==   0.78391004853419866      bohr^(-3)

 Performing scissor correction to the band energies
 Band gap has been set to    1.1100000000000001      eV

 Creating bins for C integral ...
 bintype=           1
 Energy bin size=   1.3605692530000002      eV

 Iterating... @ ik2=           1
 Iterating... @ ik2=          33
 Iterating... @ ik2=          25
 Iterating... @ ik2=          71
 Iterating... @ ik2=          17
 Iterating... @ ik2=          49
 Iterating... @ ik2=          41
 Iterating... @ ik2=          57
 Iterating... @ ik2=          64
 Iterating... @ ik2=           9
 Iterating... @ ik2=           2
 Iterating... @ ik2=          10
 Iterating... @ ik2=          58
 Iterating... @ ik2=          72
 Iterating... @ ik2=          42
 Iterating... @ ik2=          65
 Iterating... @ ik2=          34
 Iterating... @ ik2=          26
 Iterating... @ ik2=          18
 Iterating... @ ik2=          50
 Iterating... @ ik2=           3
 Iterating... @ ik2=          11
 Iterating... @ ik2=          73
 Iterating... @ ik2=          35
 Iterating... @ ik2=          59
 Iterating... @ ik2=          43
 Iterating... @ ik2=          19
 Iterating... @ ik2=          51
 Iterating... @ ik2=          66
 Iterating... @ ik2=          27
 Iterating... @ ik2=           4
 Iterating... @ ik2=          12
 Iterating... @ ik2=          74
 Iterating... @ ik2=          36
 Iterating... @ ik2=          20
 Iterating... @ ik2=          60
 Iterating... @ ik2=          44
 Iterating... @ ik2=          52
 Iterating... @ ik2=          67
 Iterating... @ ik2=          28
 Iterating... @ ik2=           5
 Iterating... @ ik2=          13
 Iterating... @ ik2=          37
 Iterating... @ ik2=          75
 Iterating... @ ik2=          61
 Iterating... @ ik2=          21
 Iterating... @ ik2=          53
 Iterating... @ ik2=          45
 Iterating... @ ik2=          68
 Iterating... @ ik2=          29
 Iterating... @ ik2=           6
 Iterating... @ ik2=          14
 Iterating... @ ik2=          38
 Iterating... @ ik2=          76
 Iterating... @ ik2=          62
 Iterating... @ ik2=          54
 Iterating... @ ik2=          22
 Iterating... @ ik2=          46
 Iterating... @ ik2=          69
 Iterating... @ ik2=          30
[...]
 Iterating... @ ik2=          77
 Iterating... @ ik2=          39
 Iterating... @ ik2=          55
 Iterating... @ ik2=          23
 Iterating... @ ik2=          63
 Iterating... @ ik2=          47
 Iterating... @ ik2=          70
 Iterating... @ ik2=          31
 Iterating... @ ik2=           8
 Iterating... @ ik2=          16
 Iterating... @ ik2=          40
 Iterating... @ ik2=          56
 Iterating... @ ik2=          24
 Iterating... @ ik2=          48
 Iterating... @ ik2=          32

  Calculation finished

 Writing output to C.01.dat
 Writing output to C.02.dat
 Writing output to C.03.dat
 Writing output to C.04.dat
 Writing output to C.05.dat
 Writing output to C.06.dat
 Writing output to C.07.dat
 Writing output to C.08.dat
 Writing output to C.09.dat
 Writing output to C.10.dat
 Writing output to C.11.dat
 Writing output to C.12.dat
 Writing output to C.13.dat
 Writing output to C.14.dat
 Writing output to C.15.dat
 Writing output to C.16.dat
 Writing output to C.17.dat
 Writing output to C.18.dat
 Writing output to C.19.dat
 Writing output to C.20.dat
 Writing output to C.21.dat
 Writing output to C.22.dat
 Writing output to C.23.dat
 Writing output to C.24.dat
 Writing output to C.25.dat
 Writing output to C.26.dat
 Writing output to C.27.dat
 Writing output to C.28.dat
 Writing output to C.29.dat
 Writing output to C.30.dat
 Writing output to C.31.dat
 Writing output to C.32.dat
 Writing output to C.33.dat
 Writing output to C.34.dat
 Writing output to C.35.dat
 Writing output to C.36.dat
 Writing output to C.37.dat
 Writing output to C.38.dat
 Writing output to C.39.dat
 Writing output to C.40.dat
 Writing output to C.41.dat
 Writing output to C.42.dat
 Writing output to C.43.dat
 Writing output to C.44.dat
 Writing output to C.45.dat
 Writing output to C.46.dat
 Writing output to C.47.dat
 Writing output to C.48.dat
 Writing output to C.49.dat
 Writing output to C.50.dat
 Writing output to C.51.dat
 Writing output to C.52.dat
 Writing output to C.53.dat
 Writing output to C.54.dat
 Writing output to C.55.dat
 Writing output to C.56.dat
 Writing output to C.57.dat
 Writing output to C.58.dat
 Writing output to C.59.dat
 Writing output to C.60.dat
 Writing output to C.61.dat
 Writing output to C.62.dat
 Writing output to C.63.dat
 Writing output to C.64.dat
 Writing output to C.65.dat
 Writing output to C.66.dat
 Writing output to C.67.dat

 &&&&&&&&&&&&&&&&&&&&&&&&&&&&&&&&&&&&&&&&&&&&&&&&&&&&&&&&&&&&&&&&&&
 -- Exiting QEdark v1.1.0
 &&&&&&&&&&&&&&&&&&&&&&&&&&&&&&&&&&&&&&&&&&&&&&&&&&&&&&&&&&&&&&&&&&

     General routines

   This run was terminated on:  12:34: 0  31Oct2019

   JOB DONE.